decision_x1=[0,4];
decision_x2=[0,4];
decision_x3=[0,4];
decision_x4=[0,4];
decision_x5=[0,4];
decision_x6=[0,4];
decision_x7=[0,4];
decision_x8=[0,4];
decision_x9=[0,4];
decision_x10=[0,4];
random_y1=[0,4];
random_y2=[0,4];
random_y3=[0,4];
random_y4=[0,4];
random_y5=[0,4];
random_y6=[0,4];
random_y7=[0,4];
random_y8=[0,4];
random_y9=[0,4];
random_y10=[0,4];
constraint_x2_x1=[
0,0,11|
0,1,86|
0,2,18|
0,3,68|
0,4,55|
1,0,77|
1,1,77|
1,2,47|
1,3,64|
1,4,4.2|
2,0,56|
2,1,73|
2,2,92|
2,3,69|
2,4,63|
3,0,49|
3,1,80|
3,2,33|
3,3,18|
3,4,87|
4,0,85|
4,1,93|
4,2,31|
4,3,15|
4,4,11|
];
constraint_x3_x2=[
0,0,77|
0,1,26|
0,2,1e+02|
0,3,98|
0,4,3.3|
1,0,1.6|
1,1,76|
1,2,97|
1,3,24|
1,4,37|
2,0,19|
2,1,45|
2,2,76|
2,3,15|
2,4,1|
3,0,23|
3,1,62|
3,2,69|
3,3,77|
3,4,95|
4,0,99|
4,1,20|
4,2,9.2|
4,3,49|
4,4,67|
];
constraint_x4_x2=[
0,0,59|
0,1,21|
0,2,22|
0,3,18|
0,4,65|
1,0,85|
1,1,37|
1,2,45|
1,3,85|
1,4,67|
2,0,33|
2,1,53|
2,2,11|
2,3,54|
2,4,67|
3,0,6.1|
3,1,55|
3,2,70|
3,3,73|
3,4,84|
4,0,11|
4,1,85|
4,2,75|
4,3,13|
4,4,80|
];
constraint_x4_x3=[
0,0,18|
0,1,66|
0,2,95|
0,3,51|
0,4,10|
1,0,4.8|
1,1,28|
1,2,61|
1,3,60|
1,4,85|
2,0,24|
2,1,63|
2,2,68|
2,3,20|
2,4,5|
3,0,1.1|
3,1,96|
3,2,22|
3,3,77|
3,4,40|
4,0,20|
4,1,93|
4,2,25|
4,3,34|
4,4,21|
];
constraint_x5_x2=[
0,0,40|
0,1,33|
0,2,46|
0,3,7.3|
0,4,12|
1,0,48|
1,1,0.18|
1,2,14|
1,3,56|
1,4,84|
2,0,61|
2,1,74|
2,2,65|
2,3,43|
2,4,23|
3,0,99|
3,1,44|
3,2,6.3|
3,3,65|
3,4,94|
4,0,71|
4,1,71|
4,2,84|
4,3,27|
4,4,93|
];
constraint_x6_x1=[
0,0,2.6|
0,1,27|
0,2,57|
0,3,53|
0,4,31|
1,0,35|
1,1,18|
1,2,11|
1,3,33|
1,4,39|
2,0,96|
2,1,23|
2,2,38|
2,3,14|
2,4,27|
3,0,66|
3,1,33|
3,2,65|
3,3,93|
3,4,25|
4,0,93|
4,1,18|
4,2,58|
4,3,23|
4,4,12|
];
constraint_x6_x4=[
0,0,53|
0,1,24|
0,2,41|
0,3,6.7|
0,4,16|
1,0,32|
1,1,97|
1,2,85|
1,3,61|
1,4,36|
2,0,67|
2,1,73|
2,2,13|
2,3,91|
2,4,50|
3,0,75|
3,1,83|
3,2,15|
3,3,54|
3,4,8|
4,0,1e+02|
4,1,4.2|
4,2,19|
4,3,48|
4,4,31|
];
constraint_x7_x2=[
0,0,4.8|
0,1,17|
0,2,43|
0,3,50|
0,4,44|
1,0,20|
1,1,73|
1,2,87|
1,3,1.2|
1,4,70|
2,0,0.27|
2,1,80|
2,2,75|
2,3,36|
2,4,21|
3,0,82|
3,1,97|
3,2,63|
3,3,42|
3,4,57|
4,0,40|
4,1,44|
4,2,96|
4,3,47|
4,4,0.28|
];
constraint_x7_x5=[
0,0,80|
0,1,61|
0,2,52|
0,3,91|
0,4,8|
1,0,74|
1,1,62|
1,2,1e+02|
1,3,19|
1,4,1.8|
2,0,88|
2,1,1e+02|
2,2,46|
2,3,58|
2,4,39|
3,0,64|
3,1,82|
3,2,75|
3,3,54|
3,4,57|
4,0,58|
4,1,11|
4,2,50|
4,3,2|
4,4,91|
];
constraint_x7_x6=[
0,0,64|
0,1,80|
0,2,32|
0,3,1.7|
0,4,52|
1,0,12|
1,1,42|
1,2,19|
1,3,12|
1,4,77|
2,0,98|
2,1,55|
2,2,50|
2,3,12|
2,4,81|
3,0,86|
3,1,74|
3,2,82|
3,3,26|
3,4,42|
4,0,21|
4,1,5.3|
4,2,1.4|
4,3,73|
4,4,54|
];
constraint_x8_x1=[
0,0,59|
0,1,51|
0,2,6.7|
0,3,71|
0,4,20|
1,0,23|
1,1,98|
1,2,11|
1,3,85|
1,4,22|
2,0,91|
2,1,85|
2,2,41|
2,3,38|
2,4,89|
3,0,96|
3,1,96|
3,2,56|
3,3,21|
3,4,36|
4,0,73|
4,1,30|
4,2,15|
4,3,74|
4,4,52|
];
constraint_x8_x2=[
0,0,44|
0,1,14|
0,2,20|
0,3,0.13|
0,4,29|
1,0,59|
1,1,53|
1,2,55|
1,3,93|
1,4,14|
2,0,74|
2,1,21|
2,2,26|
2,3,42|
2,4,47|
3,0,22|
3,1,62|
3,2,91|
3,3,48|
3,4,67|
4,0,69|
4,1,88|
4,2,11|
4,3,21|
4,4,91|
];
constraint_x8_x4=[
0,0,2|
0,1,98|
0,2,38|
0,3,70|
0,4,38|
1,0,34|
1,1,49|
1,2,7.1|
1,3,50|
1,4,17|
2,0,47|
2,1,42|
2,2,28|
2,3,28|
2,4,2.4|
3,0,64|
3,1,92|
3,2,57|
3,3,99|
3,4,91|
4,0,64|
4,1,24|
4,2,91|
4,3,65|
4,4,26|
];
constraint_x8_x5=[
0,0,14|
0,1,16|
0,2,85|
0,3,53|
0,4,21|
1,0,90|
1,1,4.6|
1,2,44|
1,3,87|
1,4,3.8|
2,0,9.5|
2,1,79|
2,2,97|
2,3,0.78|
2,4,54|
3,0,28|
3,1,54|
3,2,23|
3,3,48|
3,4,73|
4,0,90|
4,1,37|
4,2,66|
4,3,58|
4,4,67|
];
constraint_x9_x1=[
0,0,78|
0,1,22|
0,2,83|
0,3,54|
0,4,55|
1,0,40|
1,1,63|
1,2,69|
1,3,97|
1,4,22|
2,0,22|
2,1,19|
2,2,29|
2,3,73|
2,4,91|
3,0,99|
3,1,16|
3,2,39|
3,3,47|
3,4,52|
4,0,67|
4,1,90|
4,2,6.1|
4,3,25|
4,4,46|
];
constraint_x9_x2=[
0,0,57|
0,1,45|
0,2,72|
0,3,1.6|
0,4,95|
1,0,50|
1,1,85|
1,2,51|
1,3,64|
1,4,2.7|
2,0,96|
2,1,85|
2,2,41|
2,3,97|
2,4,90|
3,0,24|
3,1,93|
3,2,87|
3,3,49|
3,4,52|
4,0,49|
4,1,19|
4,2,99|
4,3,70|
4,4,71|
];
constraint_x9_x3=[
0,0,12|
0,1,95|
0,2,60|
0,3,46|
0,4,43|
1,0,13|
1,1,97|
1,2,60|
1,3,29|
1,4,59|
2,0,53|
2,1,24|
2,2,20|
2,3,57|
2,4,46|
3,0,82|
3,1,39|
3,2,50|
3,3,23|
3,4,23|
4,0,56|
4,1,0.035|
4,2,23|
4,3,11|
4,4,77|
];
constraint_x9_x4=[
0,0,72|
0,1,92|
0,2,46|
0,3,81|
0,4,74|
1,0,58|
1,1,74|
1,2,14|
1,3,82|
1,4,16|
2,0,93|
2,1,90|
2,2,93|
2,3,65|
2,4,1.2|
3,0,64|
3,1,19|
3,2,26|
3,3,10|
3,4,90|
4,0,72|
4,1,76|
4,2,78|
4,3,41|
4,4,76|
];
constraint_x9_x5=[
0,0,41|
0,1,82|
0,2,41|
0,3,87|
0,4,67|
1,0,9.1|
1,1,87|
1,2,94|
1,3,1.3|
1,4,41|
2,0,27|
2,1,60|
2,2,36|
2,3,34|
2,4,84|
3,0,78|
3,1,98|
3,2,83|
3,3,54|
3,4,27|
4,0,12|
4,1,70|
4,2,47|
4,3,50|
4,4,30|
];
constraint_x10_x4=[
0,0,27|
0,1,1.9|
0,2,64|
0,3,24|
0,4,53|
1,0,82|
1,1,60|
1,2,84|
1,3,78|
1,4,16|
2,0,27|
2,1,95|
2,2,73|
2,3,54|
2,4,54|
3,0,10|
3,1,61|
3,2,70|
3,3,52|
3,4,40|
4,0,94|
4,1,42|
4,2,84|
4,3,81|
4,4,49|
];
constraint_x10_x5=[
0,0,73|
0,1,85|
0,2,21|
0,3,26|
0,4,56|
1,0,1e+02|
1,1,40|
1,2,36|
1,3,22|
1,4,98|
2,0,49|
2,1,89|
2,2,85|
2,3,69|
2,4,41|
3,0,72|
3,1,50|
3,2,22|
3,3,3.4|
3,4,64|
4,0,32|
4,1,80|
4,2,20|
4,3,31|
4,4,90|
];
constraint_x10_x6=[
0,0,90|
0,1,61|
0,2,15|
0,3,2.1|
0,4,11|
1,0,58|
1,1,51|
1,2,14|
1,3,36|
1,4,96|
2,0,35|
2,1,61|
2,2,78|
2,3,4.9|
2,4,18|
3,0,43|
3,1,83|
3,2,66|
3,3,7|
3,4,42|
4,0,36|
4,1,93|
4,2,97|
4,3,63|
4,4,4|
];
constraint_x10_x8=[
0,0,87|
0,1,42|
0,2,45|
0,3,99|
0,4,41|
1,0,75|
1,1,34|
1,2,56|
1,3,27|
1,4,50|
2,0,2.3|
2,1,90|
2,2,46|
2,3,25|
2,4,47|
3,0,84|
3,1,1e+02|
3,2,28|
3,3,65|
3,4,90|
4,0,94|
4,1,64|
4,2,57|
4,3,7.7|
4,4,38|
];
constraint_x1_y1=[
0,0,91|
0,1,47|
0,2,7|
0,3,39|
0,4,92|
1,0,36|
1,1,72|
1,2,72|
1,3,31|
1,4,44|
2,0,6.2|
2,1,20|
2,2,80|
2,3,58|
2,4,7.9|
3,0,53|
3,1,12|
3,2,9.9|
3,3,36|
3,4,71|
4,0,5.4|
4,1,10|
4,2,79|
4,3,59|
4,4,78|
];
constraint_x2_y2=[
0,0,28|
0,1,45|
0,2,52|
0,3,84|
0,4,93|
1,0,56|
1,1,24|
1,2,20|
1,3,6.2|
1,4,92|
2,0,27|
2,1,41|
2,2,20|
2,3,35|
2,4,24|
3,0,45|
3,1,56|
3,2,11|
3,3,22|
3,4,48|
4,0,5.6|
4,1,1.8|
4,2,52|
4,3,41|
4,4,50|
];
constraint_x3_y3=[
0,0,31|
0,1,43|
0,2,86|
0,3,6.7|
0,4,59|
1,0,82|
1,1,31|
1,2,46|
1,3,12|
1,4,6.9|
2,0,90|
2,1,29|
2,2,94|
2,3,44|
2,4,80|
3,0,84|
3,1,7.7|
3,2,40|
3,3,13|
3,4,93|
4,0,4.9|
4,1,32|
4,2,80|
4,3,67|
4,4,27|
];
constraint_x4_y4=[
0,0,86|
0,1,29|
0,2,10|
0,3,10|
0,4,11|
1,0,24|
1,1,4|
1,2,86|
1,3,31|
1,4,17|
2,0,88|
2,1,14|
2,2,92|
2,3,95|
2,4,6|
3,0,38|
3,1,25|
3,2,4.2|
3,3,78|
3,4,4.6|
4,0,4.4|
4,1,6.2|
4,2,6.6|
4,3,11|
4,4,91|
];
constraint_x5_y5=[
0,0,52|
0,1,55|
0,2,72|
0,3,96|
0,4,8.7|
1,0,96|
1,1,79|
1,2,95|
1,3,23|
1,4,93|
2,0,62|
2,1,21|
2,2,24|
2,3,92|
2,4,99|
3,0,3.4|
3,1,2.4|
3,2,20|
3,3,22|
3,4,84|
4,0,7.2|
4,1,60|
4,2,64|
4,3,88|
4,4,47|
];
constraint_x6_y6=[
0,0,70|
0,1,46|
0,2,95|
0,3,92|
0,4,41|
1,0,65|
1,1,20|
1,2,54|
1,3,18|
1,4,26|
2,0,34|
2,1,37|
2,2,52|
2,3,15|
2,4,93|
3,0,49|
3,1,42|
3,2,43|
3,3,58|
3,4,9.5|
4,0,36|
4,1,42|
4,2,16|
4,3,28|
4,4,0.081|
];
constraint_x7_y7=[
0,0,81|
0,1,71|
0,2,76|
0,3,48|
0,4,38|
1,0,92|
1,1,83|
1,2,73|
1,3,82|
1,4,74|
2,0,24|
2,1,49|
2,2,28|
2,3,91|
2,4,20|
3,0,13|
3,1,25|
3,2,45|
3,3,35|
3,4,0.21|
4,0,28|
4,1,58|
4,2,6.8|
4,3,82|
4,4,8|
];
constraint_x8_y8=[
0,0,42|
0,1,75|
0,2,40|
0,3,99|
0,4,86|
1,0,43|
1,1,22|
1,2,94|
1,3,88|
1,4,92|
2,0,35|
2,1,7.2|
2,2,1.5|
2,3,11|
2,4,70|
3,0,99|
3,1,62|
3,2,44|
3,3,9|
3,4,18|
4,0,15|
4,1,74|
4,2,79|
4,3,37|
4,4,36|
];
constraint_x9_y9=[
0,0,49|
0,1,92|
0,2,67|
0,3,47|
0,4,26|
1,0,15|
1,1,50|
1,2,14|
1,3,80|
1,4,22|
2,0,21|
2,1,48|
2,2,13|
2,3,72|
2,4,46|
3,0,76|
3,1,59|
3,2,3.9|
3,3,13|
3,4,5.1|
4,0,75|
4,1,7.4|
4,2,40|
4,3,8.8|
4,4,68|
];
constraint_x10_y10=[
0,0,93|
0,1,90|
0,2,8.2|
0,3,91|
0,4,54|
1,0,25|
1,1,13|
1,2,20|
1,3,32|
1,4,21|
2,0,1|
2,1,14|
2,2,71|
2,3,26|
2,4,33|
3,0,95|
3,1,51|
3,2,75|
3,3,83|
3,4,69|
4,0,17|
4,1,7.7|
4,2,29|
4,3,1e+02|
4,4,32|
];
initial_distribution_y1=[0.22,0.29,0.24,0.24,0.0069];
initial_distribution_y2=[0.23,0.06,0.17,0.28,0.25];
initial_distribution_y3=[0.28,0.15,0.27,0.29,0.0098];
initial_distribution_y4=[0.31,0.28,0.017,0.16,0.23];
initial_distribution_y5=[0.51,0.16,0.14,0.043,0.14];
initial_distribution_y6=[0.15,0.38,0.17,0.12,0.18];
initial_distribution_y7=[0.045,0.37,0.024,0.32,0.24];
initial_distribution_y8=[0.22,0.42,0.19,0.095,0.079];
initial_distribution_y9=[0.34,0.18,0.01,0.3,0.16];
initial_distribution_y10=[0.24,0.19,0.053,0.26,0.25];
transition_y1=[
0.11,0.17,0.56,0.056,0.1|
0.13,0.33,0.14,0.091,0.3|
0.17,0.15,0.24,0.11,0.33|
0.2,0.11,0.32,0.078,0.3|
0.24,0.28,0.29,0.045,0.15|
];
transition_y2=[
0.11,0.083,0.26,0.34,0.2|
0.087,0.094,0.31,0.45,0.053|
0.34,0.034,0.026,0.067,0.53|
0.34,0.14,0.14,0.19,0.19|
0.19,0.18,0.15,0.16,0.32|
];
transition_y3=[
0.26,0.28,0.12,0.24,0.1|
0.038,0.41,0.21,0.065,0.28|
0.43,0.066,0.2,0.25,0.05|
0.082,0.18,0.28,0.18,0.27|
0.25,0.15,0.06,0.31,0.23|
];
transition_y4=[
0.11,0.033,0.33,0.44,0.091|
0.33,0.035,0.22,0.26,0.15|
0.41,0.38,0.15,0.02,0.039|
0.16,0.095,0.2,0.32,0.22|
0.085,0.086,0.34,0.27,0.21|
];
transition_y5=[
0.22,0.22,0.24,0.15,0.17|
0.28,0.0088,0.46,0.15,0.099|
0.03,0.19,0.28,0.11,0.39|
0.13,0.23,0.29,0.11,0.24|
0.46,0.025,0.22,0.037,0.26|
];
transition_y6=[
0.069,0.18,0.33,0.088,0.34|
0.22,0.37,0.0064,0.3,0.097|
0.23,0.2,0.24,0.19,0.13|
0.26,0.12,0.29,0.32,0.0088|
0.26,0.21,0.15,0.22,0.15|
];
transition_y7=[
0.39,0.092,0.37,0.12,0.028|
0.068,0.15,0.14,0.3,0.34|
0.0094,0.095,0.42,0.35,0.13|
0.26,0.07,0.24,0.25,0.19|
0.03,0.083,0.051,0.17,0.67|
];
transition_y8=[
0.13,0.19,0.35,0.15,0.19|
0.11,0.27,0.3,0.27,0.04|
0.16,0.32,0.068,0.024,0.43|
0.21,0.31,0.13,0.18,0.17|
0.27,0.12,0.27,0.3,0.045|
];
transition_y9=[
0.29,0.38,0.18,0.022,0.14|
0.048,0.13,0.49,0.21,0.11|
0.3,0.21,0.0055,0.18,0.3|
0.24,0.17,0.034,0.24,0.32|
0.27,0.066,0.31,0.19,0.17|
];
transition_y10=[
0.3,0.2,0.21,0.0047,0.28|
0.3,0.2,0.14,0.26,0.087|
0.34,0.03,0.2,0.33,0.1|
0.23,0.22,0.27,0.22,0.063|
0.23,0.099,0.27,0.19,0.21|
];
